WARNING: for repeatability, setting FPU to use double precision
============================[ Problem Statistics ]=============================
|                                                                             |
|  Number of variables:      13053309                                         |
|  Number of clauses:        45250848                                         |
|  Parse time:                   9.73 s                                       |
|                                                                             |
c ============================[ Search Statistics ]==============================
c | Conflicts |          ORIGINAL         |          LEARNT          | Progress |
c |           |    Vars  Clauses Literals |    Limit  Clauses Lit/Cl |          |
c ===============================================================================
c Switched to VSIDS.
c Switched to LRB.
c Switched to VSIDS.
c Switched to LRB.
c Switched to VSIDS.
c Switched to LRB.
c Switched to VSIDS.
c Switched to LRB.
c Switched to VSIDS.
c Switched to LRB.
c Switched to VSIDS.
c ===============================================================================
restarts                  : 167
conflicts                 : 13645          (4 /sec)
decisions                 : 14220329       (0.00 % random) (4169 /sec)
propagations              : 5571781897     (1633661 /sec)
conflict literals         : 7394496        (22.31 % deleted)

conflicts w/ DIP found    : 12311          (90.22 % of conflicts)
conflicts w/ dangerous DIP: 0              (0.00 % of conflicts)
conflicts w/ DIP-learning : 10             (0.07 % of conflicts)
decisions on ext vars     : 4              (0.00 % of decisions)
total ext vars            : 10          
tried delete ext vars     : 1           
deleted ext vars          : 1           
max ext vars              : 9           

Memory used               : 6682.00 MB
CPU time                  : 3410.61 s
DIP computation time      : 1.24849 s (0.04 % of total time)
ER_sel time               : 0.041709 s
ER_add time               : 0.00039 s
ER_delC time              : 0 s
ER_delV time              : 0.001526 s
ER_sub time               : 0.072116 s
ER_stat time              : 0 s

INDETERMINATE
